(declare-fun bvlambda_4_ () (_ BitVec 1))
(declare-fun bvlambda_27_ ()Bool         )
(declare-fun bvlambda_28_ () (_ BitVec 2))
(declare-fun a112 () (Array (_ BitVec 1) (_ BitVec 7)))
(assert
(let (($e1 (_ bv0 1)))
(let (($e32 (_ bv8 7)))
(let (($e40 (_ bv1326 16)))
(let (($e532 true                   ))
(let (($e536 (store a112  bvlambda_27_ $e32 )))
(let (($e537 (select $e536 $e532)))
(let (($e757             $e32                 ))
(let (($e763 (concat bvlambda_28_ $e1 )))
(let (($e1089 (concat $e763 $e537)))
(let (($e1091 ((_ extract 9 0) $e40  )))
(let (($e1092                    $e1091                  ))
(let (($e1198 (store a112 $e1        $e537)))
(let (($e1199 (select $e1198 bvlambda_4_)))
              (   extract      $e1199)
                                                                                                                      ))                                                                                                         )) )                                                                                                                                                                                                                                                                                                                                     )     )                                                                                                                                                                                                                           ))   )                                                                                                                                                                                                                                                                                                                                                                                                                                                                    )       )                              ))
